% Logging successfully configured
%%%mzn-stat: initTime=0.012421656
%%%mzn-stat: objective=1056
%%%mzn-stat: nodes=609
%%%mzn-stat: restarts=0
%%%mzn-stat: peakDepth=567
%%%mzn-stat: solveTime=0.046093817
%%%mzn-stat: variables=1070
%%%mzn-stat: propagators=782
%%%mzn-stat: failures=16
%%%mzn-stat: propagations=3676
%%%mzn-stat: nogoods=16
%%%mzn-stat: numAtomicConstraintsPropagated=0
%%%mzn-stat: circuitNumber1PropagationsTotal=290
%%%mzn-stat: circuitNumber1CircuitConflicts=8
%%%mzn-stat: circuitNumber1AlldiffConflicts=0
%%%mzn-stat: circuitNumber1TotalFixedEdgesAtConflict=628
%%%mzn-stat: circuitNumber1NumberOfConflicts=8
%%%mzn-stat: circuitNumber1GacPrunings=772
%%%mzn-stat: circuitNumber1PropagationsThatGacPruned=153
%%%mzn-stat: circuitNumber1TotalPruningHallSetSize=6718
%%%mzn-stat: circuitNumber1NumberOfPruningExplanations=772
%%%mzn-stat: circuitNumber1MaxPruningHallSetSize=68
%%%mzn-stat: circuitNumber1TotalSccSizeAtPruning=1672
%%%mzn-stat: circuitNumber1NumberOfSccPruningCalls=153
%%%mzn-stat: circuitNumber1TotalVarsInvolvedInPruning=614
%%%mzn-stat: circuitNumber1MaxValuesPrunedFromSingleVar=5
%%%mzn-stat: circuitNumber1HallCircuitChecks=768
%%%mzn-stat: circuitNumber1HallCircuitPrunings=23
%%%mzn-stat: circuitNumber1CircuitPreventPrunings=116
%%%mzn-stat: AverageConflictSize=23.875
%%%mzn-stat: NumUnitNogoodsLearned=0
%%%mzn-stat: AverageLearnedNogoodLength=45.75
%%%mzn-stat: AverageBacktrackAmount=0
%%%mzn-stat: AverageLbd=26.6875
%%%mzn-stat: 2AutonomousSearchNumBackupCalled=515
%%%mzn-stat: 2AutonomousSearchNumPredicatesRemoved=0
%%%mzn-stat: 2AutonomousSearchNumCalls=516
%%%mzn-stat: 2AutonomousSearchNumPredicatesAdded=2216
%%%mzn-stat: 2AutonomousSearchAverageSizeOfHeap=4.294573643410852
%%%mzn-stat: 2AutonomousSearchNumAssignedPredicatesEncountered=2216
%%%mzn-stat-end
maxleg = 1056;
succ = array1d(1..100,[21, 7, 32, 5, 27, 9, 16, 17, 13, 12, 31, 11, 25, 36, 54, 22, 37, 19, 33, 23, 26, 65, 52, 20, 44, 49, 30, 45, 2, 39, 35, 41, 34, 48, 69, 6, 78, 53, 10, 56, 63, 72, 55, 64, 77, 14, 51, 94, 57, 82, 50, 8, 43, 100, 70, 93, 61, 73, 38, 18, 88, 81, 1, 74, 79, 24, 66, 86, 47, 98, 40, 83, 60, 87, 59, 46, 96, 80, 28, 76, 75, 91, 84, 4, 29, 58, 95, 97, 42, 92, 68, 67, 15, 62, 71, 89, 85, 90, 3, 99]);
% time elapsed: 0.41 s
----------
%%%mzn-stat: initTime=0.012421656
%%%mzn-stat: objective=293
%%%mzn-stat: nodes=5670
%%%mzn-stat: restarts=0
%%%mzn-stat: peakDepth=567
%%%mzn-stat: solveTime=10.098389138
%%%mzn-stat: variables=1070
%%%mzn-stat: propagators=782
%%%mzn-stat: failures=4383
%%%mzn-stat: propagations=194715
%%%mzn-stat: nogoods=4383
%%%mzn-stat: numAtomicConstraintsPropagated=0
%%%mzn-stat: circuitNumber1PropagationsTotal=32918
%%%mzn-stat: circuitNumber1CircuitConflicts=3523
%%%mzn-stat: circuitNumber1AlldiffConflicts=33
%%%mzn-stat: circuitNumber1TotalFixedEdgesAtConflict=214418
%%%mzn-stat: circuitNumber1NumberOfConflicts=3556
%%%mzn-stat: circuitNumber1GacPrunings=116199
%%%mzn-stat: circuitNumber1PropagationsThatGacPruned=18798
%%%mzn-stat: circuitNumber1TotalPruningHallSetSize=2438286
%%%mzn-stat: circuitNumber1NumberOfPruningExplanations=116199
%%%mzn-stat: circuitNumber1MaxPruningHallSetSize=68
%%%mzn-stat: circuitNumber1TotalSccSizeAtPruning=998856
%%%mzn-stat: circuitNumber1NumberOfSccPruningCalls=18798
%%%mzn-stat: circuitNumber1TotalVarsInvolvedInPruning=84535
%%%mzn-stat: circuitNumber1MaxValuesPrunedFromSingleVar=5
%%%mzn-stat: circuitNumber1HallCircuitChecks=58270
%%%mzn-stat: circuitNumber1HallCircuitPrunings=776
%%%mzn-stat: circuitNumber1CircuitPreventPrunings=23040
%%%mzn-stat: AverageConflictSize=28.805156285649097
%%%mzn-stat: NumUnitNogoodsLearned=0
%%%mzn-stat: AverageLearnedNogoodLength=76.26671229751312
%%%mzn-stat: AverageBacktrackAmount=0
%%%mzn-stat: AverageLbd=34.96121378051563
%%%mzn-stat: 2AutonomousSearchNumBackupCalled=1004
%%%mzn-stat: 2AutonomousSearchNumPredicatesRemoved=0
%%%mzn-stat: 2AutonomousSearchNumCalls=1006
%%%mzn-stat: 2AutonomousSearchNumPredicatesAdded=7790
%%%mzn-stat: 2AutonomousSearchAverageSizeOfHeap=8.130218687872764
%%%mzn-stat: 2AutonomousSearchNumAssignedPredicatesEncountered=8179
%%%mzn-stat-end
maxleg = 293;
succ = array1d(1..100,[21, 7, 32, 5, 27, 9, 16, 17, 13, 12, 31, 11, 25, 36, 54, 22, 37, 19, 33, 23, 26, 65, 52, 20, 44, 49, 30, 45, 46, 39, 35, 41, 34, 48, 69, 6, 78, 53, 10, 56, 63, 72, 55, 64, 77, 14, 3, 94, 57, 58, 50, 73, 43, 100, 70, 93, 61, 86, 38, 18, 88, 81, 1, 74, 85, 42, 66, 24, 47, 98, 40, 79, 60, 87, 59, 80, 83, 2, 89, 8, 75, 68, 84, 4, 29, 91, 95, 97, 96, 92, 82, 67, 15, 62, 71, 28, 76, 90, 51, 99]);
% time elapsed: 10.45 s
----------
%%%mzn-stat: initTime=0.012421656
%%%mzn-stat: objective=222
%%%mzn-stat: nodes=6441
%%%mzn-stat: restarts=0
%%%mzn-stat: peakDepth=567
%%%mzn-stat: solveTime=10.431774645
%%%mzn-stat: variables=1070
%%%mzn-stat: propagators=782
%%%mzn-stat: failures=4557
%%%mzn-stat: propagations=201797
%%%mzn-stat: nogoods=4557
%%%mzn-stat: numAtomicConstraintsPropagated=0
%%%mzn-stat: circuitNumber1PropagationsTotal=34075
%%%mzn-stat: circuitNumber1CircuitConflicts=3608
%%%mzn-stat: circuitNumber1AlldiffConflicts=33
%%%mzn-stat: circuitNumber1TotalFixedEdgesAtConflict=222278
%%%mzn-stat: circuitNumber1NumberOfConflicts=3641
%%%mzn-stat: circuitNumber1GacPrunings=117570
%%%mzn-stat: circuitNumber1PropagationsThatGacPruned=19391
%%%mzn-stat: circuitNumber1TotalPruningHallSetSize=2446088
%%%mzn-stat: circuitNumber1NumberOfPruningExplanations=117570
%%%mzn-stat: circuitNumber1MaxPruningHallSetSize=72
%%%mzn-stat: circuitNumber1TotalSccSizeAtPruning=1001884
%%%mzn-stat: circuitNumber1NumberOfSccPruningCalls=19391
%%%mzn-stat: circuitNumber1TotalVarsInvolvedInPruning=85693
%%%mzn-stat: circuitNumber1MaxValuesPrunedFromSingleVar=6
%%%mzn-stat: circuitNumber1HallCircuitChecks=61975
%%%mzn-stat: circuitNumber1HallCircuitPrunings=892
%%%mzn-stat: circuitNumber1CircuitPreventPrunings=23621
%%%mzn-stat: AverageConflictSize=31.02128593372833
%%%mzn-stat: NumUnitNogoodsLearned=0
%%%mzn-stat: AverageLearnedNogoodLength=76.34606100504718
%%%mzn-stat: AverageBacktrackAmount=0
%%%mzn-stat: AverageLbd=35.254772876892694
%%%mzn-stat: 2AutonomousSearchNumBackupCalled=1489
%%%mzn-stat: 2AutonomousSearchNumPredicatesRemoved=0
%%%mzn-stat: 2AutonomousSearchNumCalls=1492
%%%mzn-stat: 2AutonomousSearchNumPredicatesAdded=10899
%%%mzn-stat: 2AutonomousSearchAverageSizeOfHeap=9.607238605898123
%%%mzn-stat: 2AutonomousSearchNumAssignedPredicatesEncountered=14334
%%%mzn-stat-end
maxleg = 222;
succ = array1d(1..100,[21, 7, 32, 5, 27, 9, 16, 17, 13, 12, 31, 11, 25, 36, 54, 22, 37, 19, 33, 23, 26, 65, 52, 20, 44, 49, 75, 45, 46, 4, 42, 41, 34, 48, 90, 6, 78, 53, 84, 56, 63, 72, 55, 64, 77, 14, 3, 94, 57, 58, 50, 73, 70, 100, 69, 93, 61, 86, 43, 18, 88, 38, 1, 74, 85, 79, 66, 24, 47, 98, 40, 83, 60, 87, 59, 80, 10, 2, 89, 8, 62, 68, 39, 30, 29, 91, 95, 97, 96, 92, 82, 67, 15, 81, 71, 28, 76, 35, 51, 99]);
% time elapsed: 10.78 s
----------
%%%mzn-stat: initTime=0.012421656
%%%mzn-stat: objective=209
%%%mzn-stat: nodes=7284
%%%mzn-stat: restarts=0
%%%mzn-stat: peakDepth=567
%%%mzn-stat: solveTime=10.912938632
%%%mzn-stat: variables=1070
%%%mzn-stat: propagators=782
%%%mzn-stat: failures=4823
%%%mzn-stat: propagations=210643
%%%mzn-stat: nogoods=4823
%%%mzn-stat: numAtomicConstraintsPropagated=0
%%%mzn-stat: circuitNumber1PropagationsTotal=35604
%%%mzn-stat: circuitNumber1CircuitConflicts=3860
%%%mzn-stat: circuitNumber1AlldiffConflicts=33
%%%mzn-stat: circuitNumber1TotalFixedEdgesAtConflict=246665
%%%mzn-stat: circuitNumber1NumberOfConflicts=3893
%%%mzn-stat: circuitNumber1GacPrunings=119313
%%%mzn-stat: circuitNumber1PropagationsThatGacPruned=20194
%%%mzn-stat: circuitNumber1TotalPruningHallSetSize=2450719
%%%mzn-stat: circuitNumber1NumberOfPruningExplanations=119313
%%%mzn-stat: circuitNumber1MaxPruningHallSetSize=72
%%%mzn-stat: circuitNumber1TotalSccSizeAtPruning=1004289
%%%mzn-stat: circuitNumber1NumberOfSccPruningCalls=20194
%%%mzn-stat: circuitNumber1TotalVarsInvolvedInPruning=87289
%%%mzn-stat: circuitNumber1MaxValuesPrunedFromSingleVar=6
%%%mzn-stat: circuitNumber1HallCircuitChecks=65004
%%%mzn-stat: circuitNumber1HallCircuitPrunings=1122
%%%mzn-stat: circuitNumber1CircuitPreventPrunings=24171
%%%mzn-stat: AverageConflictSize=34.54841385030064
%%%mzn-stat: NumUnitNogoodsLearned=0
%%%mzn-stat: AverageLearnedNogoodLength=76.9477503628447
%%%mzn-stat: AverageBacktrackAmount=0
%%%mzn-stat: AverageLbd=35.80738129794734
%%%mzn-stat: 2AutonomousSearchNumBackupCalled=1989
%%%mzn-stat: 2AutonomousSearchNumPredicatesRemoved=0
%%%mzn-stat: 2AutonomousSearchNumCalls=1993
%%%mzn-stat: 2AutonomousSearchNumPredicatesAdded=12605
%%%mzn-stat: 2AutonomousSearchAverageSizeOfHeap=10.32313095835424
%%%mzn-stat: 2AutonomousSearchNumAssignedPredicatesEncountered=20574
%%%mzn-stat-end
maxleg = 209;
succ = array1d(1..100,[21, 7, 32, 5, 27, 9, 16, 17, 13, 12, 31, 11, 25, 36, 54, 22, 37, 19, 33, 23, 26, 65, 52, 20, 44, 49, 75, 45, 46, 4, 42, 41, 34, 48, 90, 6, 78, 53, 84, 56, 63, 72, 55, 64, 96, 14, 3, 94, 57, 58, 50, 73, 70, 100, 69, 93, 61, 86, 43, 18, 88, 38, 1, 74, 85, 79, 66, 24, 47, 98, 40, 83, 60, 87, 59, 80, 10, 2, 89, 8, 62, 68, 39, 30, 29, 91, 95, 97, 28, 92, 82, 67, 15, 81, 71, 77, 76, 35, 51, 99]);
% time elapsed: 11.27 s
----------
%%%mzn-stat: initTime=0.012421656
%%%mzn-stat: objective=201
%%%mzn-stat: nodes=8229
%%%mzn-stat: restarts=0
%%%mzn-stat: peakDepth=567
%%%mzn-stat: solveTime=11.538590244
%%%mzn-stat: variables=1070
%%%mzn-stat: propagators=782
%%%mzn-stat: failures=5186
%%%mzn-stat: propagations=221271
%%%mzn-stat: nogoods=5186
%%%mzn-stat: numAtomicConstraintsPropagated=0
%%%mzn-stat: circuitNumber1PropagationsTotal=37536
%%%mzn-stat: circuitNumber1CircuitConflicts=4211
%%%mzn-stat: circuitNumber1AlldiffConflicts=33
%%%mzn-stat: circuitNumber1TotalFixedEdgesAtConflict=280581
%%%mzn-stat: circuitNumber1NumberOfConflicts=4244
%%%mzn-stat: circuitNumber1GacPrunings=121330
%%%mzn-stat: circuitNumber1PropagationsThatGacPruned=21168
%%%mzn-stat: circuitNumber1TotalPruningHallSetSize=2455973
%%%mzn-stat: circuitNumber1NumberOfPruningExplanations=121330
%%%mzn-stat: circuitNumber1MaxPruningHallSetSize=96
%%%mzn-stat: circuitNumber1TotalSccSizeAtPruning=1007453
%%%mzn-stat: circuitNumber1NumberOfSccPruningCalls=21168
%%%mzn-stat: circuitNumber1TotalVarsInvolvedInPruning=89138
%%%mzn-stat: circuitNumber1MaxValuesPrunedFromSingleVar=6
%%%mzn-stat: circuitNumber1HallCircuitChecks=68421
%%%mzn-stat: circuitNumber1HallCircuitPrunings=1441
%%%mzn-stat: circuitNumber1CircuitPreventPrunings=24855
%%%mzn-stat: AverageConflictSize=38.79907443116082
%%%mzn-stat: NumUnitNogoodsLearned=0
%%%mzn-stat: AverageLearnedNogoodLength=77.61743154647127
%%%mzn-stat: AverageBacktrackAmount=0
%%%mzn-stat: AverageLbd=36.550134978789046
%%%mzn-stat: 2AutonomousSearchNumBackupCalled=2482
%%%mzn-stat: 2AutonomousSearchNumPredicatesRemoved=0
%%%mzn-stat: 2AutonomousSearchNumCalls=2487
%%%mzn-stat: 2AutonomousSearchNumPredicatesAdded=14823
%%%mzn-stat: 2AutonomousSearchAverageSizeOfHeap=10.800562927221552
%%%mzn-stat: 2AutonomousSearchNumAssignedPredicatesEncountered=26861
%%%mzn-stat-end
maxleg = 201;
succ = array1d(1..100,[21, 7, 32, 5, 38, 9, 16, 17, 13, 12, 31, 11, 25, 36, 54, 22, 37, 19, 33, 23, 26, 65, 52, 20, 44, 49, 30, 45, 46, 4, 35, 41, 34, 48, 69, 6, 78, 53, 10, 56, 63, 72, 55, 64, 96, 14, 3, 94, 57, 58, 50, 73, 43, 100, 70, 93, 61, 86, 75, 18, 88, 59, 1, 74, 85, 42, 66, 24, 47, 98, 40, 79, 60, 87, 27, 80, 83, 2, 89, 8, 62, 68, 84, 39, 29, 91, 95, 97, 28, 92, 82, 67, 15, 81, 71, 77, 76, 90, 51, 99]);
% time elapsed: 11.91 s
----------
%%%mzn-stat: initTime=0.012421656
%%%mzn-stat: objective=200
%%%mzn-stat: nodes=8898
%%%mzn-stat: restarts=0
%%%mzn-stat: peakDepth=567
%%%mzn-stat: solveTime=11.729454454
%%%mzn-stat: variables=1070
%%%mzn-stat: propagators=782
%%%mzn-stat: failures=5287
%%%mzn-stat: propagations=225597
%%%mzn-stat: nogoods=5287
%%%mzn-stat: numAtomicConstraintsPropagated=0
%%%mzn-stat: circuitNumber1PropagationsTotal=38203
%%%mzn-stat: circuitNumber1CircuitConflicts=4306
%%%mzn-stat: circuitNumber1AlldiffConflicts=33
%%%mzn-stat: circuitNumber1TotalFixedEdgesAtConflict=289640
%%%mzn-stat: circuitNumber1NumberOfConflicts=4339
%%%mzn-stat: circuitNumber1GacPrunings=122298
%%%mzn-stat: circuitNumber1PropagationsThatGacPruned=21511
%%%mzn-stat: circuitNumber1TotalPruningHallSetSize=2461428
%%%mzn-stat: circuitNumber1NumberOfPruningExplanations=122298
%%%mzn-stat: circuitNumber1MaxPruningHallSetSize=96
%%%mzn-stat: circuitNumber1TotalSccSizeAtPruning=1009546
%%%mzn-stat: circuitNumber1NumberOfSccPruningCalls=21511
%%%mzn-stat: circuitNumber1TotalVarsInvolvedInPruning=89981
%%%mzn-stat: circuitNumber1MaxValuesPrunedFromSingleVar=6
%%%mzn-stat: circuitNumber1HallCircuitChecks=69886
%%%mzn-stat: circuitNumber1HallCircuitPrunings=1533
%%%mzn-stat: circuitNumber1CircuitPreventPrunings=25069
%%%mzn-stat: AverageConflictSize=39.696803480234536
%%%mzn-stat: NumUnitNogoodsLearned=0
%%%mzn-stat: AverageLearnedNogoodLength=77.67126915074712
%%%mzn-stat: AverageBacktrackAmount=0
%%%mzn-stat: AverageLbd=36.61452619633062
%%%mzn-stat: 2AutonomousSearchNumBackupCalled=2964
%%%mzn-stat: 2AutonomousSearchNumPredicatesRemoved=0
%%%mzn-stat: 2AutonomousSearchNumCalls=2970
%%%mzn-stat: 2AutonomousSearchNumPredicatesAdded=16676
%%%mzn-stat: 2AutonomousSearchAverageSizeOfHeap=11.161952861952862
%%%mzn-stat: 2AutonomousSearchNumAssignedPredicatesEncountered=33151
%%%mzn-stat-end
maxleg = 200;
succ = array1d(1..100,[21, 7, 32, 5, 38, 9, 16, 17, 13, 12, 31, 11, 25, 36, 54, 22, 37, 19, 33, 23, 26, 65, 52, 20, 44, 49, 30, 45, 46, 4, 42, 41, 34, 48, 90, 6, 78, 53, 84, 56, 63, 72, 70, 64, 96, 14, 3, 94, 57, 58, 50, 73, 55, 100, 69, 93, 61, 86, 43, 18, 88, 81, 1, 74, 85, 79, 66, 24, 47, 98, 40, 83, 60, 87, 59, 80, 10, 2, 89, 8, 75, 68, 39, 27, 29, 91, 95, 97, 28, 92, 82, 67, 15, 62, 71, 77, 76, 35, 51, 99]);
% time elapsed: 12.09 s
----------
%%%mzn-stat: initTime=0.012421656
%%%mzn-stat: objective=181
%%%mzn-stat: nodes=9526
%%%mzn-stat: restarts=0
%%%mzn-stat: peakDepth=567
%%%mzn-stat: solveTime=11.901619248
%%%mzn-stat: variables=1070
%%%mzn-stat: propagators=782
%%%mzn-stat: failures=5377
%%%mzn-stat: propagations=229455
%%%mzn-stat: nogoods=5377
%%%mzn-stat: numAtomicConstraintsPropagated=0
%%%mzn-stat: circuitNumber1PropagationsTotal=38765
%%%mzn-stat: circuitNumber1CircuitConflicts=4393
%%%mzn-stat: circuitNumber1AlldiffConflicts=33
%%%mzn-stat: circuitNumber1TotalFixedEdgesAtConflict=298063
%%%mzn-stat: circuitNumber1NumberOfConflicts=4426
%%%mzn-stat: circuitNumber1GacPrunings=123073
%%%mzn-stat: circuitNumber1PropagationsThatGacPruned=21803
%%%mzn-stat: circuitNumber1TotalPruningHallSetSize=2464957
%%%mzn-stat: circuitNumber1NumberOfPruningExplanations=123073
%%%mzn-stat: circuitNumber1MaxPruningHallSetSize=96
%%%mzn-stat: circuitNumber1TotalSccSizeAtPruning=1011247
%%%mzn-stat: circuitNumber1NumberOfSccPruningCalls=21803
%%%mzn-stat: circuitNumber1TotalVarsInvolvedInPruning=90661
%%%mzn-stat: circuitNumber1MaxValuesPrunedFromSingleVar=6
%%%mzn-stat: circuitNumber1HallCircuitChecks=70980
%%%mzn-stat: circuitNumber1HallCircuitPrunings=1615
%%%mzn-stat: circuitNumber1CircuitPreventPrunings=25261
%%%mzn-stat: AverageConflictSize=40.60740189696857
%%%mzn-stat: NumUnitNogoodsLearned=0
%%%mzn-stat: AverageLearnedNogoodLength=77.84880044634555
%%%mzn-stat: AverageBacktrackAmount=0
%%%mzn-stat: AverageLbd=36.710805281755626
%%%mzn-stat: 2AutonomousSearchNumBackupCalled=3443
%%%mzn-stat: 2AutonomousSearchNumPredicatesRemoved=0
%%%mzn-stat: 2AutonomousSearchNumCalls=3450
%%%mzn-stat: 2AutonomousSearchNumPredicatesAdded=18302
%%%mzn-stat: 2AutonomousSearchAverageSizeOfHeap=11.433043478260869
%%%mzn-stat: 2AutonomousSearchNumAssignedPredicatesEncountered=39444
%%%mzn-stat-end
maxleg = 181;
succ = array1d(1..100,[21, 7, 32, 5, 38, 9, 16, 17, 13, 12, 31, 11, 25, 36, 54, 22, 37, 19, 33, 23, 26, 65, 52, 20, 44, 49, 30, 45, 46, 4, 42, 41, 34, 48, 90, 6, 80, 53, 84, 56, 63, 72, 70, 64, 96, 14, 3, 94, 57, 58, 50, 73, 55, 100, 69, 93, 61, 86, 43, 18, 88, 81, 1, 74, 85, 79, 66, 24, 47, 98, 40, 83, 60, 87, 59, 8, 10, 2, 89, 78, 75, 68, 39, 27, 29, 91, 95, 97, 28, 92, 82, 67, 15, 62, 71, 77, 76, 35, 51, 99]);
% time elapsed: 12.26 s
----------
%%%mzn-stat: initTime=0.012421656
%%%mzn-stat: objective=181
%%%mzn-stat: nodes=695278
%%%mzn-stat: restarts=0
%%%mzn-stat: peakDepth=567
%%%mzn-stat: solveTime=1799.662402502
%%%mzn-stat: variables=1070
%%%mzn-stat: propagators=782
%%%mzn-stat: failures=690611
%%%mzn-stat: propagations=19433372
%%%mzn-stat: nogoods=690611
%%%mzn-stat: numAtomicConstraintsPropagated=0
%%%mzn-stat: circuitNumber1PropagationsTotal=3994814
%%%mzn-stat: circuitNumber1CircuitConflicts=675868
%%%mzn-stat: circuitNumber1AlldiffConflicts=51
%%%mzn-stat: circuitNumber1TotalFixedEdgesAtConflict=63123561
%%%mzn-stat: circuitNumber1NumberOfConflicts=675919
%%%mzn-stat: circuitNumber1GacPrunings=4446781
%%%mzn-stat: circuitNumber1PropagationsThatGacPruned=2163710
%%%mzn-stat: circuitNumber1TotalPruningHallSetSize=9669702
%%%mzn-stat: circuitNumber1NumberOfPruningExplanations=4446781
%%%mzn-stat: circuitNumber1MaxPruningHallSetSize=96
%%%mzn-stat: circuitNumber1TotalSccSizeAtPruning=6324338
%%%mzn-stat: circuitNumber1NumberOfSccPruningCalls=2163710
%%%mzn-stat: circuitNumber1TotalVarsInvolvedInPruning=3964338
%%%mzn-stat: circuitNumber1MaxValuesPrunedFromSingleVar=6
%%%mzn-stat: circuitNumber1HallCircuitChecks=10865013
%%%mzn-stat: circuitNumber1HallCircuitPrunings=872410
%%%mzn-stat: circuitNumber1CircuitPreventPrunings=1840597
%%%mzn-stat: AverageConflictSize=17.423202063100646
%%%mzn-stat: NumUnitNogoodsLearned=0
%%%mzn-stat: AverageLearnedNogoodLength=87.22518465532696
%%%mzn-stat: AverageBacktrackAmount=0
%%%mzn-stat: AverageLbd=40.66582345198672
%%%mzn-stat: 2AutonomousSearchNumBackupCalled=3443
%%%mzn-stat: 2AutonomousSearchNumPredicatesRemoved=0
%%%mzn-stat: 2AutonomousSearchNumCalls=3450
%%%mzn-stat: 2AutonomousSearchNumPredicatesAdded=22750
%%%mzn-stat: 2AutonomousSearchAverageSizeOfHeap=11.433043478260869
%%%mzn-stat: 2AutonomousSearchNumAssignedPredicatesEncountered=39444
%%%mzn-stat-end
